p edge 200 2037
p 1 4
p 1 10
p 1 11
p 1 12
p 1 31
p 1 33
p 1 35
p 1 40
p 1 45
p 1 48
p 1 51
p 1 52
p 1 70
p 1 72
p 1 81
p 1 100
p 1 102
p 1 103
p 1 111
p 1 113
p 1 128
p 1 131
p 1 138
p 1 156
p 1 158
p 1 172
p 1 173
p 1 188
p 1 191
p 2 4
p 2 8
p 2 10
p 2 20
p 2 36
p 2 47
p 2 61
p 2 65
p 2 75
p 2 78
p 2 86
p 2 91
p 2 126
p 2 138
p 2 192
p 2 193
p 3 20
p 3 41
p 3 47
p 3 51
p 3 56
p 3 66
p 3 67
p 3 112
p 3 114
p 3 120
p 3 132
p 3 133
p 3 139
p 3 144
p 3 156
p 3 174
p 3 180
p 3 184
p 3 187
p 4 9
p 4 25
p 4 35
p 4 40
p 4 62
p 4 89
p 4 127
p 4 132
p 4 144
p 4 148
p 4 154
p 4 165
p 4 179
p 4 183
p 4 190
p 4 196
p 5 13
p 5 22
p 5 23
p 5 26
p 5 29
p 5 32
p 5 34
p 5 37
p 5 48
p 5 49
p 5 55
p 5 78
p 5 93
p 5 106
p 5 110
p 5 112
p 5 123
p 5 125
p 5 129
p 5 131
p 5 157
p 5 160
p 5 164
p 5 170
p 5 195
p 6 13
p 6 27
p 6 28
p 6 34
p 6 36
p 6 43
p 6 49
p 6 79
p 6 85
p 6 103
p 6 104
p 6 105
p 6 108
p 6 119
p 6 123
p 6 135
p 6 183
p 7 19
p 7 31
p 7 37
p 7 65
p 7 69
p 7 82
p 7 89
p 7 99
p 7 111
p 7 112
p 7 117
p 7 144
p 7 155
p 7 157
p 7 163
p 7 165
p 7 173
p 7 174
p 7 182
p 7 196
p 8 14
p 8 23
p 8 26
p 8 37
p 8 38
p 8 46
p 8 58
p 8 60
p 8 66
p 8 69
p 8 73
p 8 80
p 8 83
p 8 88
p 8 90
p 8 91
p 8 113
p 8 115
p 8 124
p 8 128
p 8 130
p 8 136
p 8 168
p 8 177
p 8 179
p 8 184
p 8 192
p 9 11
p 9 26
p 9 39
p 9 41
p 9 42
p 9 64
p 9 69
p 9 72
p 9 94
p 9 108
p 9 109
p 9 111
p 9 117
p 9 133
p 9 137
p 9 140
p 9 144
p 9 151
p 9 164
p 9 172
p 9 175
p 9 182
p 9 183
p 10 12
p 10 37
p 10 42
p 10 69
p 10 79
p 10 92
p 10 94
p 10 96
p 10 97
p 10 119
p 10 139
p 10 155
p 10 169
p 10 190
p 11 15
p 11 17
p 11 21
p 11 37
p 11 39
p 11 45
p 11 48
p 11 55
p 11 81
p 11 85
p 11 88
p 11 90
p 11 96
p 11 100
p 11 108
p 11 114
p 11 129
p 11 141
p 11 144
p 11 157
p 11 158
p 11 160
p 11 167
p 11 175
p 11 177
p 11 178
p 11 181
p 11 185
p 11 188
p 11 193
p 11 200
p 12 13
p 12 15
p 12 18
p 12 21
p 12 24
p 12 25
p 12 47
p 12 58
p 12 89
p 12 106
p 12 139
p 12 160
p 12 163
p 13 15
p 13 27
p 13 51
p 13 54
p 13 58
p 13 70
p 13 112
p 13 115
p 13 138
p 13 139
p 13 152
p 13 156
p 13 164
p 13 170
p 13 174
p 14 31
p 14 44
p 14 48
p 14 51
p 14 55
p 14 58
p 14 68
p 14 84
p 14 85
p 14 95
p 14 113
p 14 118
p 14 121
p 14 122
p 14 131
p 14 135
p 14 149
p 14 200
p 15 17
p 15 24
p 15 39
p 15 43
p 15 46
p 15 60
p 15 62
p 15 75
p 15 79
p 15 89
p 15 100
p 15 109
p 15 177
p 15 181
p 15 195
p 16 36
p 16 50
p 16 61
p 16 75
p 16 77
p 16 80
p 16 97
p 16 98
p 16 104
p 16 119
p 16 122
p 16 136
p 16 139
p 16 147
p 16 156
p 16 165
p 16 174
p 16 184
p 16 187
p 17 20
p 17 21
p 17 25
p 17 60
p 17 68
p 17 72
p 17 83
p 17 92
p 17 94
p 17 100
p 17 118
p 17 119
p 17 129
p 17 133
p 17 141
p 17 142
p 17 151
p 17 161
p 17 164
p 17 166
p 17 167
p 17 190
p 17 194
p 17 195
p 17 198
p 18 27
p 18 29
p 18 34
p 18 50
p 18 55
p 18 58
p 18 60
p 18 78
p 18 89
p 18 112
p 18 130
p 18 152
p 18 157
p 18 163
p 18 177
p 19 20
p 19 23
p 19 29
p 19 43
p 19 51
p 19 54
p 19 61
p 19 65
p 19 66
p 19 69
p 19 90
p 19 99
p 19 101
p 19 104
p 19 119
p 19 128
p 19 134
p 19 179
p 19 184
p 19 185
p 19 191
p 19 197
p 20 27
p 20 37
p 20 55
p 20 60
p 20 62
p 20 64
p 20 76
p 20 83
p 20 86
p 20 91
p 20 97
p 20 109
p 20 154
p 20 155
p 20 158
p 20 180
p 20 188
p 20 199
p 21 26
p 21 36
p 21 39
p 21 44
p 21 46
p 21 53
p 21 61
p 21 62
p 21 63
p 21 86
p 21 88
p 21 93
p 21 116
p 21 123
p 21 128
p 21 142
p 21 143
p 21 153
p 21 165
p 21 178
p 21 185
p 21 194
p 21 197
p 22 26
p 22 32
p 22 52
p 22 63
p 22 85
p 22 95
p 22 109
p 22 123
p 22 140
p 22 146
p 22 148
p 22 156
p 22 160
p 22 164
p 22 172
p 22 196
p 22 198
p 22 199
p 23 25
p 23 29
p 23 55
p 23 64
p 23 67
p 23 77
p 23 91
p 23 97
p 23 103
p 23 106
p 23 129
p 23 130
p 23 135
p 23 145
p 23 153
p 23 177
p 23 178
p 23 188
p 24 27
p 24 35
p 24 36
p 24 40
p 24 43
p 24 51
p 24 53
p 24 54
p 24 69
p 24 71
p 24 74
p 24 87
p 24 90
p 24 94
p 24 101
p 24 128
p 24 132
p 24 168
p 24 175
p 24 186
p 25 34
p 25 41
p 25 44
p 25 62
p 25 64
p 25 65
p 25 76
p 25 80
p 25 85
p 25 90
p 25 105
p 25 122
p 25 138
p 25 139
p 25 158
p 25 189
p 25 194
p 26 34
p 26 38
p 26 52
p 26 53
p 26 78
p 26 96
p 26 117
p 26 127
p 26 133
p 26 146
p 26 151
p 26 171
p 26 176
p 26 184
p 27 32
p 27 38
p 27 44
p 27 55
p 27 69
p 27 79
p 27 85
p 27 97
p 27 112
p 27 129
p 27 131
p 27 151
p 27 163
p 27 169
p 27 185
p 27 193
p 27 194
p 28 33
p 28 82
p 28 92
p 28 94
p 28 102
p 28 124
p 28 138
p 28 160
p 28 166
p 28 167
p 28 173
p 28 186
p 28 191
p 28 198
p 28 200
p 29 32
p 29 36
p 29 38
p 29 43
p 29 46
p 29 52
p 29 55
p 29 58
p 29 71
p 29 74
p 29 77
p 29 78
p 29 82
p 29 83
p 29 86
p 29 120
p 29 124
p 29 130
p 29 131
p 29 132
p 29 143
p 29 145
p 29 151
p 29 158
p 29 161
p 29 172
p 29 178
p 29 180
p 29 193
p 30 34
p 30 47
p 30 49
p 30 69
p 30 71
p 30 88
p 30 96
p 30 105
p 30 120
p 30 124
p 30 127
p 30 142
p 30 160
p 30 180
p 31 33
p 31 42
p 31 49
p 31 58
p 31 68
p 31 98
p 31 106
p 31 122
p 31 124
p 31 129
p 31 134
p 31 190
p 31 192
p 32 34
p 32 39
p 32 40
p 32 41
p 32 54
p 32 56
p 32 63
p 32 84
p 32 104
p 32 118
p 32 122
p 32 124
p 32 132
p 32 135
p 32 136
p 32 161
p 32 165
p 32 177
p 32 188
p 32 197
p 32 198
p 32 200
p 33 41
p 33 43
p 33 60
p 33 73
p 33 75
p 33 82
p 33 100
p 33 101
p 33 104
p 33 108
p 33 120
p 33 128
p 33 132
p 33 161
p 33 178
p 33 180
p 34 59
p 34 150
p 34 158
p 34 164
p 34 168
p 34 197
p 34 198
p 34 200
p 35 53
p 35 61
p 35 64
p 35 81
p 35 91
p 35 95
p 35 103
p 35 114
p 35 125
p 35 152
p 35 155
p 35 157
p 35 187
p 35 191
p 35 197
p 36 58
p 36 88
p 36 96
p 36 97
p 36 106
p 36 136
p 36 141
p 36 149
p 36 165
p 36 183
p 36 193
p 36 196
p 36 197
p 37 41
p 37 83
p 37 89
p 37 100
p 37 105
p 37 118
p 37 119
p 37 132
p 37 137
p 37 141
p 37 146
p 37 148
p 37 149
p 37 151
p 37 155
p 37 156
p 37 174
p 37 177
p 37 178
p 37 180
p 37 189
p 37 192
p 37 197
p 38 44
p 38 47
p 38 54
p 38 59
p 38 65
p 38 66
p 38 88
p 38 99
p 38 104
p 38 118
p 38 119
p 38 128
p 38 138
p 38 140
p 38 152
p 38 156
p 38 159
p 38 161
p 38 178
p 38 179
p 38 189
p 38 193
p 38 194
p 38 200
p 39 43
p 39 49
p 39 66
p 39 68
p 39 83
p 39 91
p 39 100
p 39 106
p 39 111
p 39 112
p 39 114
p 39 159
p 39 171
p 39 174
p 39 183
p 39 187
p 39 190
p 40 73
p 40 75
p 40 76
p 40 101
p 40 103
p 40 105
p 40 109
p 40 144
p 40 145
p 40 156
p 40 182
p 40 187
p 41 42
p 41 58
p 41 68
p 41 70
p 41 73
p 41 74
p 41 94
p 41 99
p 41 100
p 41 111
p 41 124
p 41 127
p 41 128
p 41 130
p 41 131
p 41 147
p 41 160
p 41 168
p 41 172
p 41 189
p 41 199
p 41 200
p 42 54
p 42 66
p 42 69
p 42 72
p 42 94
p 42 96
p 42 98
p 42 111
p 42 118
p 42 119
p 42 131
p 42 133
p 42 154
p 42 156
p 42 158
p 42 162
p 42 171
p 42 181
p 42 194
p 43 51
p 43 61
p 43 62
p 43 77
p 43 85
p 43 96
p 43 108
p 43 115
p 43 133
p 43 136
p 43 139
p 43 143
p 43 146
p 43 169
p 43 171
p 43 179
p 43 200
p 44 48
p 44 54
p 44 56
p 44 60
p 44 71
p 44 84
p 44 119
p 44 124
p 44 133
p 44 150
p 44 153
p 44 158
p 44 159
p 44 165
p 44 167
p 44 179
p 44 192
p 45 51
p 45 58
p 45 77
p 45 83
p 45 87
p 45 95
p 45 103
p 45 109
p 45 117
p 45 129
p 45 141
p 45 146
p 45 152
p 45 154
p 45 158
p 46 59
p 46 67
p 46 72
p 46 82
p 46 88
p 46 107
p 46 115
p 46 120
p 46 136
p 46 145
p 46 166
p 46 179
p 47 50
p 47 77
p 47 95
p 47 109
p 47 115
p 47 128
p 47 142
p 47 146
p 47 162
p 47 170
p 47 173
p 47 178
p 47 190
p 47 193
p 48 57
p 48 71
p 48 76
p 48 78
p 48 101
p 48 102
p 48 107
p 48 115
p 48 116
p 48 120
p 48 152
p 48 157
p 48 164
p 48 167
p 48 169
p 48 175
p 48 182
p 48 183
p 48 190
p 49 57
p 49 60
p 49 63
p 49 64
p 49 77
p 49 90
p 49 104
p 49 105
p 49 108
p 49 115
p 49 120
p 49 128
p 49 130
p 49 160
p 49 171
p 49 188
p 49 195
p 50 61
p 50 77
p 50 99
p 50 100
p 50 109
p 50 123
p 50 130
p 50 140
p 50 147
p 50 152
p 50 163
p 50 179
p 50 181
p 50 186
p 50 195
p 50 197
p 50 199
p 51 91
p 51 112
p 51 115
p 51 137
p 51 139
p 51 146
p 51 148
p 51 156
p 51 157
p 51 167
p 51 170
p 51 181
p 51 192
p 52 55
p 52 56
p 52 67
p 52 68
p 52 118
p 52 119
p 52 131
p 52 133
p 52 137
p 52 144
p 52 146
p 52 158
p 52 166
p 52 171
p 52 181
p 52 196
p 53 62
p 53 69
p 53 76
p 53 85
p 53 87
p 53 95
p 53 153
p 53 169
p 53 170
p 53 172
p 53 186
p 53 189
p 53 194
p 54 56
p 54 65
p 54 69
p 54 71
p 54 74
p 54 82
p 54 91
p 54 104
p 54 112
p 54 116
p 54 124
p 54 125
p 54 134
p 54 150
p 54 151
p 54 165
p 54 171
p 54 179
p 54 182
p 54 183
p 54 190
p 54 193
p 54 196
p 54 197
p 55 59
p 55 67
p 55 70
p 55 85
p 55 89
p 55 102
p 55 114
p 55 128
p 55 137
p 55 153
p 55 154
p 55 172
p 55 183
p 55 199
p 56 57
p 56 71
p 56 87
p 56 93
p 56 119
p 56 138
p 56 144
p 56 156
p 56 163
p 56 164
p 56 169
p 56 173
p 56 177
p 56 184
p 56 187
p 56 196
p 57 64
p 57 87
p 57 89
p 57 97
p 57 108
p 57 121
p 57 142
p 57 194
p 58 64
p 58 65
p 58 71
p 58 80
p 58 84
p 58 90
p 58 101
p 58 102
p 58 108
p 58 111
p 58 118
p 58 119
p 58 138
p 58 145
p 58 147
p 58 148
p 58 156
p 58 160
p 58 171
p 58 178
p 58 183
p 58 196
p 59 75
p 59 76
p 59 80
p 59 84
p 59 121
p 59 128
p 59 134
p 59 144
p 59 161
p 59 182
p 59 187
p 59 194
p 60 64
p 60 77
p 60 92
p 60 95
p 60 126
p 60 128
p 60 129
p 60 134
p 60 139
p 60 156
p 60 166
p 60 172
p 60 180
p 60 190
p 60 191
p 61 89
p 61 93
p 61 94
p 61 99
p 61 108
p 61 115
p 61 124
p 61 129
p 61 131
p 61 134
p 61 143
p 61 151
p 61 176
p 61 184
p 61 191
p 61 193
p 61 194
p 62 66
p 62 69
p 62 74
p 62 77
p 62 98
p 62 106
p 62 107
p 62 118
p 62 124
p 62 125
p 62 189
p 62 195
p 63 106
p 63 113
p 63 115
p 63 130
p 63 134
p 63 137
p 63 147
p 63 148
p 63 156
p 63 177
p 64 65
p 64 74
p 64 81
p 64 97
p 64 115
p 64 135
p 64 143
p 64 159
p 64 160
p 64 161
p 64 165
p 64 167
p 64 169
p 64 173
p 64 198
p 65 77
p 65 92
p 65 95
p 65 104
p 65 113
p 65 121
p 65 125
p 65 142
p 65 144
p 65 160
p 65 186
p 66 72
p 66 73
p 66 79
p 66 80
p 66 83
p 66 87
p 66 92
p 66 103
p 66 133
p 66 155
p 66 161
p 66 179
p 66 181
p 66 188
p 66 194
p 66 196
p 67 74
p 67 77
p 67 85
p 67 90
p 67 136
p 67 137
p 67 141
p 67 152
p 67 165
p 67 168
p 67 177
p 68 71
p 68 78
p 68 85
p 68 89
p 68 100
p 68 112
p 68 113
p 68 126
p 68 132
p 68 136
p 68 142
p 68 151
p 68 170
p 68 186
p 68 193
p 68 196
p 69 91
p 69 97
p 69 114
p 69 121
p 69 125
p 69 128
p 69 138
p 69 139
p 69 149
p 69 152
p 69 154
p 69 162
p 69 173
p 69 195
p 69 200
p 70 103
p 70 104
p 70 106
p 70 114
p 70 137
p 70 147
p 70 151
p 70 177
p 70 179
p 70 190
p 70 199
p 70 200
p 71 83
p 71 88
p 71 91
p 71 96
p 71 101
p 71 116
p 71 119
p 71 138
p 71 144
p 71 146
p 71 147
p 71 166
p 71 169
p 71 176
p 71 194
p 72 109
p 72 111
p 72 138
p 72 139
p 72 151
p 72 165
p 72 166
p 72 169
p 73 86
p 73 93
p 73 104
p 73 108
p 73 109
p 73 115
p 73 122
p 73 129
p 73 149
p 73 150
p 73 153
p 73 154
p 73 161
p 73 163
p 73 168
p 73 169
p 73 172
p 73 176
p 73 195
p 73 200
p 74 77
p 74 89
p 74 109
p 74 116
p 74 128
p 74 165
p 74 167
p 74 170
p 74 176
p 75 103
p 75 104
p 75 119
p 75 131
p 75 134
p 75 137
p 75 141
p 75 146
p 75 155
p 75 157
p 75 167
p 75 182
p 76 81
p 76 91
p 76 108
p 76 125
p 76 145
p 76 146
p 76 150
p 76 151
p 76 160
p 76 168
p 76 171
p 76 186
p 77 85
p 77 86
p 77 93
p 77 95
p 77 99
p 77 102
p 77 111
p 77 146
p 77 168
p 77 171
p 77 181
p 77 193
p 78 98
p 78 103
p 78 105
p 78 116
p 78 125
p 78 132
p 78 167
p 78 185
p 78 187
p 79 80
p 79 85
p 79 92
p 79 93
p 79 106
p 79 108
p 79 125
p 79 163
p 79 179
p 79 180
p 79 187
p 79 191
p 79 196
p 80 87
p 80 89
p 80 108
p 80 110
p 80 114
p 80 142
p 80 156
p 80 179
p 81 90
p 81 99
p 81 104
p 81 112
p 81 114
p 81 126
p 81 128
p 81 147
p 81 155
p 81 169
p 81 199
p 82 97
p 82 118
p 82 125
p 82 128
p 82 129
p 82 149
p 82 158
p 82 187
p 82 188
p 82 192
p 82 196
p 82 199
p 83 97
p 83 99
p 83 102
p 83 107
p 83 127
p 83 130
p 83 133
p 83 144
p 83 165
p 83 166
p 83 167
p 83 173
p 83 180
p 83 185
p 83 193
p 84 99
p 84 115
p 84 123
p 84 136
p 84 145
p 84 165
p 84 170
p 84 177
p 84 182
p 85 88
p 85 92
p 85 98
p 85 107
p 85 112
p 85 122
p 85 159
p 85 181
p 85 182
p 85 194
p 86 88
p 86 107
p 86 108
p 86 111
p 86 116
p 86 119
p 86 124
p 86 148
p 86 162
p 86 169
p 86 186
p 86 196
p 86 200
p 87 105
p 87 112
p 87 115
p 87 119
p 87 121
p 87 130
p 87 146
p 87 147
p 87 150
p 87 156
p 87 194
p 87 196
p 88 102
p 88 114
p 88 121
p 88 125
p 88 126
p 88 131
p 88 136
p 88 143
p 88 158
p 88 159
p 88 163
p 89 94
p 89 101
p 89 106
p 89 122
p 89 125
p 89 127
p 89 148
p 89 163
p 89 173
p 89 175
p 89 183
p 90 101
p 90 105
p 90 129
p 90 144
p 90 149
p 90 151
p 90 170
p 90 175
p 91 93
p 91 100
p 91 102
p 91 103
p 91 104
p 91 118
p 91 142
p 91 150
p 91 154
p 91 156
p 91 161
p 91 166
p 91 186
p 91 196
p 92 108
p 92 118
p 92 128
p 92 135
p 92 160
p 92 174
p 92 194
p 93 115
p 93 117
p 93 139
p 93 183
p 94 100
p 94 108
p 94 112
p 94 114
p 94 127
p 94 134
p 94 138
p 94 154
p 94 155
p 94 161
p 94 179
p 94 191
p 94 195
p 95 97
p 95 101
p 95 109
p 95 123
p 95 134
p 95 136
p 95 141
p 95 159
p 95 174
p 95 190
p 96 99
p 96 144
p 96 156
p 96 157
p 96 158
p 96 159
p 96 166
p 96 176
p 96 178
p 96 186
p 96 189
p 96 195
p 96 196
p 97 105
p 97 122
p 97 134
p 97 140
p 97 144
p 97 156
p 97 173
p 97 189
p 98 99
p 98 121
p 98 127
p 98 134
p 98 138
p 98 144
p 98 146
p 98 147
p 98 161
p 98 168
p 98 182
p 98 183
p 98 188
p 99 101
p 99 102
p 99 103
p 99 117
p 99 138
p 99 143
p 99 149
p 99 150
p 99 163
p 99 171
p 99 172
p 99 187
p 99 191
p 99 196
p 99 200
p 100 124
p 100 127
p 100 136
p 100 137
p 100 150
p 100 151
p 100 157
p 100 178
p 100 183
p 100 191
p 100 193
p 101 103
p 101 117
p 101 127
p 101 132
p 101 138
p 101 159
p 101 163
p 101 170
p 101 173
p 101 192
p 102 128
p 102 147
p 102 148
p 102 161
p 102 168
p 102 184
p 102 186
p 103 109
p 103 123
p 103 142
p 103 169
p 103 178
p 104 109
p 104 122
p 104 123
p 104 128
p 104 133
p 104 134
p 104 137
p 104 140
p 104 152
p 104 176
p 105 119
p 105 123
p 105 151
p 105 156
p 105 172
p 105 173
p 105 175
p 105 179
p 105 188
p 105 197
p 106 109
p 106 112
p 106 118
p 106 136
p 106 138
p 106 145
p 106 178
p 106 185
p 106 188
p 107 138
p 107 142
p 107 154
p 107 156
p 107 162
p 107 168
p 107 183
p 107 194
p 108 117
p 108 118
p 108 120
p 108 142
p 108 176
p 108 178
p 108 179
p 108 180
p 108 182
p 108 197
p 109 111
p 109 113
p 109 130
p 109 131
p 109 133
p 109 139
p 109 142
p 109 148
p 109 152
p 109 169
p 109 185
p 110 135
p 110 154
p 110 155
p 110 163
p 110 165
p 110 174
p 110 191
p 110 196
p 111 127
p 111 144
p 111 153
p 111 155
p 111 157
p 111 158
p 111 173
p 111 192
p 112 114
p 112 137
p 112 139
p 112 141
p 112 155
p 112 159
p 112 176
p 112 183
p 112 189
p 112 191
p 112 193
p 113 131
p 113 132
p 113 135
p 113 138
p 113 139
p 113 153
p 113 154
p 113 164
p 113 186
p 114 120
p 114 159
p 114 164
p 114 169
p 114 170
p 114 192
p 114 195
p 114 196
p 115 124
p 115 152
p 115 153
p 115 160
p 115 175
p 115 183
p 115 188
p 115 189
p 115 191
p 115 192
p 116 131
p 116 133
p 116 136
p 116 142
p 116 161
p 116 176
p 116 191
p 116 192
p 116 193
p 117 127
p 117 128
p 117 135
p 117 137
p 117 147
p 117 169
p 117 174
p 117 182
p 117 189
p 117 194
p 118 122
p 118 152
p 118 178
p 118 185
p 119 127
p 119 134
p 119 141
p 119 154
p 119 180
p 120 140
p 120 141
p 120 162
p 120 171
p 120 181
p 120 188
p 120 197
p 121 143
p 121 145
p 121 185
p 121 193
p 121 196
p 122 138
p 122 152
p 122 153
p 122 155
p 122 169
p 122 171
p 122 189
p 122 190
p 122 195
p 123 127
p 123 139
p 123 155
p 123 159
p 123 162
p 123 163
p 123 166
p 123 169
p 123 179
p 123 186
p 123 188
p 123 190
p 123 191
p 123 193
p 123 194
p 124 137
p 124 152
p 124 174
p 124 184
p 124 196
p 125 134
p 125 142
p 125 147
p 125 159
p 125 161
p 125 186
p 125 194
p 125 197
p 125 198
p 126 132
p 126 134
p 126 140
p 126 144
p 126 170
p 126 173
p 127 128
p 127 158
p 127 166
p 127 170
p 127 190
p 127 194
p 127 196
p 127 197
p 128 136
p 128 141
p 128 147
p 128 162
p 128 177
p 128 180
p 128 187
p 128 188
p 129 151
p 129 178
p 129 192
p 129 193
p 129 200
p 130 132
p 130 178
p 130 183
p 130 185
p 130 195
p 131 134
p 131 138
p 131 175
p 131 176
p 131 177
p 131 182
p 131 198
p 132 141
p 132 145
p 132 148
p 132 158
p 132 161
p 132 167
p 132 184
p 132 196
p 133 142
p 133 162
p 133 164
p 133 178
p 133 187
p 133 192
p 133 195
p 133 200
p 134 145
p 134 149
p 134 151
p 134 152
p 134 185
p 134 197
p 135 141
p 135 145
p 135 146
p 135 147
p 135 149
p 135 159
p 135 161
p 135 179
p 135 188
p 136 145
p 136 146
p 136 165
p 136 176
p 136 187
p 136 199
p 137 142
p 137 146
p 137 150
p 137 162
p 137 180
p 137 191
p 138 178
p 138 190
p 139 161
p 139 168
p 139 172
p 139 180
p 139 185
p 139 196
p 139 199
p 140 142
p 140 168
p 140 183
p 140 185
p 140 187
p 141 149
p 141 151
p 141 153
p 141 175
p 141 181
p 141 184
p 142 144
p 142 166
p 142 168
p 142 169
p 142 174
p 142 179
p 142 189
p 142 196
p 143 163
p 143 173
p 143 182
p 144 155
p 144 159
p 144 169
p 144 179
p 144 190
p 144 196
p 145 171
p 145 184
p 145 188
p 145 200
p 146 156
p 146 160
p 146 178
p 146 180
p 146 181
p 146 188
p 146 190
p 146 200
p 147 153
p 147 157
p 147 161
p 147 195
p 147 198
p 147 200
p 148 153
p 148 181
p 148 184
p 148 194
p 148 199
p 149 172
p 149 184
p 149 196
p 149 198
p 150 183
p 150 188
p 151 159
p 151 172
p 151 182
p 151 189
p 151 193
p 151 199
p 152 157
p 152 163
p 152 168
p 153 172
p 153 195
p 154 159
p 154 162
p 154 170
p 154 171
p 154 176
p 154 178
p 154 194
p 155 158
p 155 163
p 155 175
p 155 176
p 155 180
p 155 184
p 155 189
p 155 200
p 156 161
p 156 162
p 156 164
p 156 166
p 156 167
p 156 195
p 156 198
p 156 199
p 157 159
p 157 164
p 157 168
p 157 175
p 157 182
p 157 194
p 158 179
p 158 180
p 158 183
p 158 187
p 159 163
p 159 175
p 159 196
p 160 178
p 161 166
p 161 173
p 161 184
p 161 192
p 161 198
p 162 164
p 162 175
p 162 184
p 162 192
p 162 195
p 163 168
p 163 177
p 163 181
p 163 182
p 163 183
p 163 186
p 163 191
p 164 185
p 165 170
p 165 175
p 165 177
p 165 189
p 165 198
p 166 174
p 166 181
p 166 199
p 167 169
p 167 172
p 167 173
p 167 174
p 167 184
p 168 179
p 168 180
p 168 183
p 168 188
p 169 177
p 169 180
p 169 184
p 169 192
p 169 196
p 169 200
p 170 172
p 170 177
p 170 191
p 171 176
p 171 177
p 171 179
p 171 196
p 172 175
p 172 194
p 172 197
p 173 194
p 173 195
p 173 199
p 175 185
p 176 179
p 176 185
p 176 195
p 178 194
p 178 197
p 178 198
p 178 200
p 179 183
p 180 181
p 180 199
p 181 184
p 181 186
p 182 186
p 182 200
p 183 184
p 183 190
p 184 186
p 184 188
p 184 193
p 184 195
p 184 198
p 186 200
p 187 196
p 188 198
p 189 195
p 191 195
p 191 196
p 191 198
p 191 199
p 194 195
p 195 198
p 196 197
p 197 200
p 198 200
